p cnf 505
-6 -160
-7 -163
-8 -166
-9 -169
-10 -172
-11 173
-12 174
-13 175
-14 176
-15 177
-16 178
-17 179
-18 -7
-18 -8
7 8 18
-19 -9
-19 -10
9 10 19
-20 -11
-20 -12
11 12 20
-21 -13
-21 -14
13 14 21
-22 -15
-22 -16
15 16 22
-23 18
-23 19
-18 -19 23
-24 20
-24 21
-20 -21 24
-25 -17
-25 22
17 -22 25
-26 23
-26 24
-23 -24 26
-27 25
-27 26
-25 -26 27
-28 -6
-28 7
6 -7 28
-29 6
-29 -7
-6 7 29
-30 -28
-30 -29
28 29 30
-31 6
-31 7
-6 -7 31
-32 -6
-32 -30
6 30 32
-33 6
-33 30
-6 -30 33
-34 -32
-34 -33
32 33 34
-35 6
-35 -30
-6 30 35
-36 -31
-36 -35
31 35 36
-37 -7
-37 8
7 -8 37
-38 7
-38 -8
-7 8 38
-39 -37
-39 -38
37 38 39
-40 7
-40 8
-7 -8 40
-41 36
-41 -39
-36 39 41
-42 -36
-42 39
36 -39 42
-43 -41
-43 -42
41 42 43
-44 -36
-44 -39
36 39 44
-45 -40
-45 -44
40 44 45
-46 -8
-46 9
8 -9 46
-47 8
-47 -9
-8 9 47
-48 -46
-48 -47
46 47 48
-49 8
-49 9
-8 -9 49
-50 45
-50 -48
-45 48 50
-51 -45
-51 48
45 -48 51
-52 -50
-52 -51
50 51 52
-53 -45
-53 -48
45 48 53
-54 -49
-54 -53
49 53 54
-55 -9
-55 10
9 -10 55
-56 9
-56 -10
-9 10 56
-57 -55
-57 -56
55 56 57
-58 9
-58 10
-9 -10 58
-59 54
-59 -57
-54 57 59
-60 -54
-60 57
54 -57 60
-61 -59
-61 -60
59 60 61
-62 -54
-62 -57
54 57 62
-63 -58
-63 -62
58 62 63
-64 -10
-64 11
10 -11 64
-65 10
-65 -11
-10 11 65
-66 -64
-66 -65
64 65 66
-67 10
-67 11
-10 -11 67
-68 63
-68 -66
-63 66 68
-69 -63
-69 66
63 -66 69
-70 -68
-70 -69
68 69 70
-71 -63
-71 -66
63 66 71
-72 -67
-72 -71
67 71 72
-73 -11
-73 12
11 -12 73
-74 11
-74 -12
-11 12 74
-75 -73
-75 -74
73 74 75
-76 11
-76 12
-11 -12 76
-77 72
-77 -75
-72 75 77
-78 -72
-78 75
72 -75 78
-79 -77
-79 -78
77 78 79
-80 -72
-80 -75
72 75 80
-81 -76
-81 -80
76 80 81
-82 -12
-82 13
12 -13 82
-83 12
-83 -13
-12 13 83
-84 -82
-84 -83
82 83 84
-85 12
-85 13
-12 -13 85
-86 81
-86 -84
-81 84 86
-87 -81
-87 84
81 -84 87
-88 -86
-88 -87
86 87 88
-89 -81
-89 -84
81 84 89
-90 -85
-90 -89
85 89 90
-91 -13
-91 14
13 -14 91
-92 13
-92 -14
-13 14 92
-93 -91
-93 -92
91 92 93
-94 13
-94 14
-13 -14 94
-95 90
-95 -93
-90 93 95
-96 -90
-96 93
90 -93 96
-97 -95
-97 -96
95 96 97
-98 -90
-98 -93
90 93 98
-99 -94
-99 -98
94 98 99
-100 -14
-100 15
14 -15 100
-101 14
-101 -15
-14 15 101
-102 -100
-102 -101
100 101 102
-103 14
-103 15
-14 -15 103
-104 99
-104 -102
-99 102 104
-105 -99
-105 102
99 -102 105
-106 -104
-106 -105
104 105 106
-107 -99
-107 -102
99 102 107
-108 -103
-108 -107
103 107 108
-109 -15
-109 16
15 -16 109
-110 15
-110 -16
-15 16 110
-111 -109
-111 -110
109 110 111
-112 15
-112 16
-15 -16 112
-113 108
-113 -111
-108 111 113
-114 -108
-114 111
108 -111 114
-115 -113
-115 -114
113 114 115
-116 -108
-116 -111
108 111 116
-117 -112
-117 -116
112 116 117
-118 -16
-118 17
16 -17 118
-119 16
-119 -17
-16 17 119
-120 -118
-120 -119
118 119 120
-121 16
-121 17
-16 -17 121
-122 117
-122 -120
-117 120 122
-123 -117
-123 120
117 -120 123
-124 -122
-124 -123
122 123 124
-125 -117
-125 -120
117 120 125
-126 -121
-126 -125
121 125 126
-127 6
-127 -34
-6 34 127
-128 -6
-128 8
6 -8 128
-129 -127
-129 -128
127 128 129
-130 6
-130 -43
-6 43 130
-131 -6
-131 9
6 -9 131
-132 -130
-132 -131
130 131 132
-133 6
-133 -52
-6 52 133
-134 -6
-134 10
6 -10 134
-135 -133
-135 -134
133 134 135
-136 6
-136 -61
-6 61 136
-137 -6
-137 11
6 -11 137
-138 -136
-138 -137
136 137 138
-139 6
-139 -70
-6 70 139
-140 -6
-140 12
6 -12 140
-141 -139
-141 -140
139 140 141
-142 6
-142 -79
-6 79 142
-143 -6
-143 13
6 -13 143
-144 -142
-144 -143
142 143 144
-145 6
-145 -88
-6 88 145
-146 -6
-146 14
6 -14 146
-147 -145
-147 -146
145 146 147
-148 6
-148 -97
-6 97 148
-149 -6
-149 15
6 -15 149
-150 -148
-150 -149
148 149 150
-151 6
-151 -106
-6 106 151
-152 -6
-152 16
6 -16 152
-153 -151
-153 -152
151 152 153
-154 6
-154 -115
-6 115 154
-155 -6
-155 17
6 -17 155
-156 -154
-156 -155
154 155 156
-157 6
-157 -124
-6 124 157
-158 1
-158 27
-1 -27 158
-159 -27
-159 28
27 -28 159
-160 -158
-160 -159
158 159 160
-161 2
-161 27
-2 -27 161
-162 -27
-162 -129
27 129 162
-163 -161
-163 -162
161 162 163
-164 3
-164 27
-3 -27 164
-165 -27
-165 -132
27 132 165
-166 -164
-166 -165
164 165 166
-167 4
-167 27
-4 -27 167
-168 -27
-168 -135
27 135 168
-169 -167
-169 -168
167 168 169
-170 5
-170 27
-5 -27 170
-171 -27
-171 -138
27 138 171
-172 -170
-172 -171
170 171 172
-173 -27
-173 -141
27 141 173
-174 -27
-174 -144
27 144 174
-175 -27
-175 -147
27 147 175
-176 -27
-176 -150
27 150 176
-177 -27
-177 -153
27 153 177
-178 -27
-178 -156
27 156 178
-179 -27
-179 157
27 -157 179
-180 -17
-180 126
17 -126 180
-181 6
-181 -180
-6 180 181
181
